50
    27    12     5    23    21    37    98    43    14    81    50    14    98    62    11    75     7    65    22    80    14    37    14    98    33    95    10    15    19    19    21    31    67    55    51    63    13    15    94    43    35    76    34    19    49    82    47    55    13    40
     6     1     9     7     1     1     9     1     9     4     8     5     8     8     9     6     4     2     2     2     9     3     5     8     4    10     2     1     4     9     5     7     6     7     4     2     9     2     4    10     4     9    10     7     4     4     1     6     5     4
   821   509   237   358   214   263   218   232   364   829   292   246   221    40   665   574   254   384   710   683   795   684    45    38   808   803    28    67   430    34   635   679   583   122   275   545   478   308   225   330   579   338   250   459   113   550   514   152    33   691
